c nIsolatedPIs 32
c maxPI 96
p cnf 313 652
c gate 97 -32 -80 0
-32 -97 0
-80 -97 0
32 80 97 0
c gate 98 -30 -78 0
-30 -98 0
-78 -98 0
30 78 98 0
c gate 99 -31 -79 0
-31 -99 0
-79 -99 0
31 79 99 0
c gate 100 -98 -99 0
-98 -100 0
-99 -100 0
98 99 100 0
c gate 101 30 78 0
30 -101 0
78 -101 0
-30 -78 101 0
c gate 102 29 77 0
29 -102 0
77 -102 0
-29 -77 102 0
c gate 103 -101 -102 0
-101 -103 0
-102 -103 0
101 102 103 0
c gate 104 100 -103 0
100 -104 0
-103 -104 0
-100 103 104 0
c gate 105 32 80 0
32 -105 0
80 -105 0
-32 -80 105 0
c gate 106 31 79 0
31 -106 0
79 -106 0
-31 -79 106 0
c gate 107 -105 -106 0
-105 -107 0
-106 -107 0
105 106 107 0
c gate 108 -104 107 0
-104 -108 0
107 -108 0
104 -107 108 0
c gate 109 -29 -77 0
-29 -109 0
-77 -109 0
29 77 109 0
c gate 110 100 -109 0
100 -110 0
-109 -110 0
-100 109 110 0
c gate 111 28 76 0
28 -111 0
76 -111 0
-28 -76 111 0
c gate 112 -28 -76 0
-28 -112 0
-76 -112 0
28 76 112 0
c gate 113 27 75 0
27 -113 0
75 -113 0
-27 -75 113 0
c gate 114 -112 113 0
-112 -114 0
113 -114 0
112 -113 114 0
c gate 115 -111 -114 0
-111 -115 0
-114 -115 0
111 114 115 0
c gate 116 -26 -74 0
-26 -116 0
-74 -116 0
26 74 116 0
c gate 117 -27 -75 0
-27 -117 0
-75 -117 0
27 75 117 0
c gate 118 -112 -117 0
-112 -118 0
-117 -118 0
112 117 118 0
c gate 119 -116 118 0
-116 -119 0
118 -119 0
116 -118 119 0
c gate 120 115 119 0
115 -120 0
119 -120 0
-115 -119 120 0
c gate 121 26 74 0
26 -121 0
74 -121 0
-26 -74 121 0
c gate 122 25 73 0
25 -122 0
73 -122 0
-25 -73 122 0
c gate 123 -121 -122 0
-121 -123 0
-122 -123 0
121 122 123 0
c gate 124 120 -123 0
120 -124 0
-123 -124 0
-120 123 124 0
c gate 125 115 -124 0
115 -125 0
-124 -125 0
-115 124 125 0
c gate 126 110 -125 0
110 -126 0
-125 -126 0
-110 125 126 0
c gate 127 108 -126 0
108 -127 0
-126 -127 0
-108 126 127 0
c gate 128 -97 -127 0
-97 -128 0
-127 -128 0
97 127 128 0
c gate 129 -24 -72 0
-24 -129 0
-72 -129 0
24 72 129 0
c gate 130 23 71 0
23 -130 0
71 -130 0
-23 -71 130 0
c gate 131 24 72 0
24 -131 0
72 -131 0
-24 -72 131 0
c gate 132 -130 -131 0
-130 -132 0
-131 -132 0
130 131 132 0
c gate 133 -22 -70 0
-22 -133 0
-70 -133 0
22 70 133 0
c gate 134 -23 -71 0
-23 -134 0
-71 -134 0
23 71 134 0
c gate 135 -133 -134 0
-133 -135 0
-134 -135 0
133 134 135 0
c gate 136 22 70 0
22 -136 0
70 -136 0
-22 -70 136 0
c gate 137 21 69 0
21 -137 0
69 -137 0
-21 -69 137 0
c gate 138 -136 -137 0
-136 -138 0
-137 -138 0
136 137 138 0
c gate 139 -21 -69 0
-21 -139 0
-69 -139 0
21 69 139 0
c gate 140 20 68 0
20 -140 0
68 -140 0
-20 -68 140 0
c gate 141 -20 -68 0
-20 -141 0
-68 -141 0
20 68 141 0
c gate 142 19 -141 0
19 -142 0
-141 -142 0
-19 141 142 0
c gate 143 67 142 0
67 -143 0
142 -143 0
-67 -142 143 0
c gate 144 -140 -143 0
-140 -144 0
-143 -144 0
140 143 144 0
c gate 145 67 -141 0
67 -145 0
-141 -145 0
-67 141 145 0
c gate 146 -142 -145 0
-142 -146 0
-145 -146 0
142 145 146 0
c gate 147 18 66 0
18 -147 0
66 -147 0
-18 -66 147 0
c gate 148 17 65 0
17 -148 0
65 -148 0
-17 -65 148 0
c gate 149 -147 -148 0
-147 -149 0
-148 -149 0
147 148 149 0
c gate 150 -18 -66 0
-18 -150 0
-66 -150 0
18 66 150 0
c gate 151 -149 -150 0
-149 -151 0
-150 -151 0
149 150 151 0
c gate 152 -146 151 0
-146 -152 0
151 -152 0
146 -151 152 0
c gate 153 144 -152 0
144 -153 0
-152 -153 0
-144 152 153 0
c gate 154 -139 -153 0
-139 -154 0
-153 -154 0
139 153 154 0
c gate 155 138 -154 0
138 -155 0
-154 -155 0
-138 154 155 0
c gate 156 135 -155 0
135 -156 0
-155 -156 0
-135 155 156 0
c gate 157 132 -156 0
132 -157 0
-156 -157 0
-132 156 157 0
c gate 158 -129 -157 0
-129 -158 0
-157 -158 0
129 157 158 0
c gate 159 2 50 0
2 -159 0
50 -159 0
-2 -50 159 0
c gate 160 1 49 0
1 -160 0
49 -160 0
-1 -49 160 0
c gate 161 -159 -160 0
-159 -161 0
-160 -161 0
159 160 161 0
c gate 162 -3 -51 0
-3 -162 0
-51 -162 0
3 51 162 0
c gate 163 -2 -50 0
-2 -163 0
-50 -163 0
2 50 163 0
c gate 164 -162 -163 0
-162 -164 0
-163 -164 0
162 163 164 0
c gate 165 -161 164 0
-161 -165 0
164 -165 0
161 -164 165 0
c gate 166 4 52 0
4 -166 0
52 -166 0
-4 -52 166 0
c gate 167 3 51 0
3 -167 0
51 -167 0
-3 -51 167 0
c gate 168 -166 -167 0
-166 -168 0
-167 -168 0
166 167 168 0
c gate 169 -165 168 0
-165 -169 0
168 -169 0
165 -168 169 0
c gate 170 -4 -52 0
-4 -170 0
-52 -170 0
4 52 170 0
c gate 171 -5 -53 0
-5 -171 0
-53 -171 0
5 53 171 0
c gate 172 -170 -171 0
-170 -172 0
-171 -172 0
170 171 172 0
c gate 173 -169 172 0
-169 -173 0
172 -173 0
169 -172 173 0
c gate 174 6 54 0
6 -174 0
54 -174 0
-6 -54 174 0
c gate 175 5 53 0
5 -175 0
53 -175 0
-5 -53 175 0
c gate 176 -174 -175 0
-174 -176 0
-175 -176 0
174 175 176 0
c gate 177 -173 176 0
-173 -177 0
176 -177 0
173 -176 177 0
c gate 178 -7 -55 0
-7 -178 0
-55 -178 0
7 55 178 0
c gate 179 -6 -54 0
-6 -179 0
-54 -179 0
6 54 179 0
c gate 180 -178 -179 0
-178 -180 0
-179 -180 0
178 179 180 0
c gate 181 -177 180 0
-177 -181 0
180 -181 0
177 -180 181 0
c gate 182 8 56 0
8 -182 0
56 -182 0
-8 -56 182 0
c gate 183 7 55 0
7 -183 0
55 -183 0
-7 -55 183 0
c gate 184 -182 -183 0
-182 -184 0
-183 -184 0
182 183 184 0
c gate 185 -181 184 0
-181 -185 0
184 -185 0
181 -184 185 0
c gate 186 -9 -57 0
-9 -186 0
-57 -186 0
9 57 186 0
c gate 187 -8 -56 0
-8 -187 0
-56 -187 0
8 56 187 0
c gate 188 -186 -187 0
-186 -188 0
-187 -188 0
186 187 188 0
c gate 189 -185 188 0
-185 -189 0
188 -189 0
185 -188 189 0
c gate 190 10 58 0
10 -190 0
58 -190 0
-10 -58 190 0
c gate 191 9 57 0
9 -191 0
57 -191 0
-9 -57 191 0
c gate 192 -190 -191 0
-190 -192 0
-191 -192 0
190 191 192 0
c gate 193 -189 192 0
-189 -193 0
192 -193 0
189 -192 193 0
c gate 194 -10 -58 0
-10 -194 0
-58 -194 0
10 58 194 0
c gate 195 -12 -60 0
-12 -195 0
-60 -195 0
12 60 195 0
c gate 196 -11 -59 0
-11 -196 0
-59 -196 0
11 59 196 0
c gate 197 -195 -196 0
-195 -197 0
-196 -197 0
195 196 197 0
c gate 198 -194 197 0
-194 -198 0
197 -198 0
194 -197 198 0
c gate 199 -193 198 0
-193 -199 0
198 -199 0
193 -198 199 0
c gate 200 12 60 0
12 -200 0
60 -200 0
-12 -60 200 0
c gate 201 11 59 0
11 -201 0
59 -201 0
-11 -59 201 0
c gate 202 -195 201 0
-195 -202 0
201 -202 0
195 -201 202 0
c gate 203 -200 -202 0
-200 -203 0
-202 -203 0
200 202 203 0
c gate 204 -199 203 0
-199 -204 0
203 -204 0
199 -203 204 0
c gate 205 -14 -62 0
-14 -205 0
-62 -205 0
14 62 205 0
c gate 206 -15 -63 0
-15 -206 0
-63 -206 0
15 63 206 0
c gate 207 -205 -206 0
-205 -207 0
-206 -207 0
205 206 207 0
c gate 208 14 62 0
14 -208 0
62 -208 0
-14 -62 208 0
c gate 209 13 61 0
13 -209 0
61 -209 0
-13 -61 209 0
c gate 210 -208 -209 0
-208 -210 0
-209 -210 0
208 209 210 0
c gate 211 -13 -61 0
-13 -211 0
-61 -211 0
13 61 211 0
c gate 212 210 -211 0
210 -212 0
-211 -212 0
-210 211 212 0
c gate 213 207 212 0
207 -213 0
212 -213 0
-207 -212 213 0
c gate 214 -204 213 0
-204 -214 0
213 -214 0
204 -213 214 0
c gate 215 207 -210 0
207 -215 0
-210 -215 0
-207 210 215 0
c gate 216 15 63 0
15 -216 0
63 -216 0
-15 -63 216 0
c gate 217 16 64 0
16 -217 0
64 -217 0
-16 -64 217 0
c gate 218 -216 -217 0
-216 -218 0
-217 -218 0
216 217 218 0
c gate 219 -215 218 0
-215 -219 0
218 -219 0
215 -218 219 0
c gate 220 -214 219 0
-214 -220 0
219 -220 0
214 -219 220 0
c gate 221 -17 -65 0
-17 -221 0
-65 -221 0
17 65 221 0
c gate 222 -16 -64 0
-16 -222 0
-64 -222 0
16 64 222 0
c gate 223 -150 -222 0
-150 -223 0
-222 -223 0
150 222 223 0
c gate 224 -221 223 0
-221 -224 0
223 -224 0
221 -223 224 0
c gate 225 -129 -139 0
-129 -225 0
-139 -225 0
129 139 225 0
c gate 226 132 225 0
132 -226 0
225 -226 0
-132 -225 226 0
c gate 227 224 226 0
224 -227 0
226 -227 0
-224 -226 227 0
c gate 228 -146 227 0
-146 -228 0
227 -228 0
146 -227 228 0
c gate 229 135 138 0
135 -229 0
138 -229 0
-135 -138 229 0
c gate 230 149 229 0
149 -230 0
229 -230 0
-149 -229 230 0
c gate 231 144 230 0
144 -231 0
230 -231 0
-144 -230 231 0
c gate 232 228 231 0
228 -232 0
231 -232 0
-228 -231 232 0
c gate 233 -220 232 0
-220 -233 0
232 -233 0
220 -232 233 0
c gate 234 -158 -233 0
-158 -234 0
-233 -234 0
158 233 234 0
c gate 235 -25 -73 0
-25 -235 0
-73 -235 0
25 73 235 0
c gate 236 -97 -235 0
-97 -236 0
-235 -236 0
97 235 236 0
c gate 237 123 236 0
123 -237 0
236 -237 0
-123 -236 237 0
c gate 238 110 237 0
110 -238 0
237 -238 0
-110 -237 238 0
c gate 239 120 238 0
120 -239 0
238 -239 0
-120 -238 239 0
c gate 240 108 239 0
108 -240 0
239 -240 0
-108 -239 240 0
c gate 241 -234 240 0
-234 -241 0
240 -241 0
234 -240 241 0
c gate 242 36 84 0
36 -242 0
84 -242 0
-36 -84 242 0
c gate 243 -36 -84 0
-36 -243 0
-84 -243 0
36 84 243 0
c gate 244 35 83 0
35 -244 0
83 -244 0
-35 -83 244 0
c gate 245 -243 244 0
-243 -245 0
244 -245 0
243 -244 245 0
c gate 246 -242 -245 0
-242 -246 0
-245 -246 0
242 245 246 0
c gate 247 -40 -88 0
-40 -247 0
-88 -247 0
40 88 247 0
c gate 248 39 87 0
39 -248 0
87 -248 0
-39 -87 248 0
c gate 249 -247 248 0
-247 -249 0
248 -249 0
247 -248 249 0
c gate 250 -38 -86 0
-38 -250 0
-86 -250 0
38 86 250 0
c gate 251 37 85 0
37 -251 0
85 -251 0
-37 -85 251 0
c gate 252 -250 251 0
-250 -252 0
251 -252 0
250 -251 252 0
c gate 253 38 86 0
38 -253 0
86 -253 0
-38 -86 253 0
c gate 254 40 88 0
40 -254 0
88 -254 0
-40 -88 254 0
c gate 255 -253 -254 0
-253 -255 0
-254 -255 0
253 254 255 0
c gate 256 -252 255 0
-252 -256 0
255 -256 0
252 -255 256 0
c gate 257 -249 256 0
-249 -257 0
256 -257 0
249 -256 257 0
c gate 258 246 257 0
246 -258 0
257 -258 0
-246 -257 258 0
c gate 259 241 -258 0
241 -259 0
-258 -259 0
-241 258 259 0
c gate 260 -128 -259 0
-128 -260 0
-259 -260 0
128 259 260 0
c gate 261 -35 -83 0
-35 -261 0
-83 -261 0
35 83 261 0
c gate 262 -43 -91 0
-43 -262 0
-91 -262 0
43 91 262 0
c gate 263 -261 -262 0
-261 -263 0
-262 -263 0
261 262 263 0
c gate 264 43 91 0
43 -264 0
91 -264 0
-43 -91 264 0
c gate 265 -44 -92 0
-44 -265 0
-92 -265 0
44 92 265 0
c gate 266 -264 -265 0
-264 -266 0
-265 -266 0
264 265 266 0
c gate 267 263 266 0
263 -267 0
266 -267 0
-263 -266 267 0
c gate 268 44 92 0
44 -268 0
92 -268 0
-44 -92 268 0
c gate 269 41 89 0
41 -269 0
89 -269 0
-41 -89 269 0
c gate 270 -268 -269 0
-268 -270 0
-269 -270 0
268 269 270 0
c gate 271 46 94 0
46 -271 0
94 -271 0
-46 -94 271 0
c gate 272 -46 -94 0
-46 -272 0
-94 -272 0
46 94 272 0
c gate 273 -271 -272 0
-271 -273 0
-272 -273 0
271 272 273 0
c gate 274 270 273 0
270 -274 0
273 -274 0
-270 -273 274 0
c gate 275 267 274 0
267 -275 0
274 -275 0
-267 -274 275 0
c gate 276 246 275 0
246 -276 0
275 -276 0
-246 -275 276 0
c gate 277 34 -82 0
34 -277 0
-82 -277 0
-34 82 277 0
c gate 278 -34 82 0
-34 -278 0
82 -278 0
34 -82 278 0
c gate 279 -277 -278 0
-277 -279 0
-278 -279 0
277 278 279 0
c gate 280 -47 -95 0
-47 -280 0
-95 -280 0
47 95 280 0
c gate 281 -243 -280 0
-243 -281 0
-280 -281 0
243 280 281 0
c gate 282 255 281 0
255 -282 0
281 -282 0
-255 -281 282 0
c gate 283 -279 282 0
-279 -283 0
282 -283 0
279 -282 283 0
c gate 284 47 95 0
47 -284 0
95 -284 0
-47 -95 284 0
c gate 285 -33 -81 0
-33 -285 0
-81 -285 0
33 81 285 0
c gate 286 -284 -285 0
-284 -286 0
-285 -286 0
284 285 286 0
c gate 287 -45 -93 0
-45 -287 0
-93 -287 0
45 93 287 0
c gate 288 45 93 0
45 -288 0
93 -288 0
-45 -93 288 0
c gate 289 -287 -288 0
-287 -289 0
-288 -289 0
287 288 289 0
c gate 290 286 289 0
286 -290 0
289 -290 0
-286 -289 290 0
c gate 291 -250 -251 0
-250 -291 0
-251 -291 0
250 251 291 0
c gate 292 -247 -248 0
-247 -292 0
-248 -292 0
247 248 292 0
c gate 293 291 292 0
291 -293 0
292 -293 0
-291 -292 293 0
c gate 294 290 293 0
290 -294 0
293 -294 0
-290 -293 294 0
c gate 295 -39 -87 0
-39 -295 0
-87 -295 0
39 87 295 0
c gate 296 33 81 0
33 -296 0
81 -296 0
-33 -81 296 0
c gate 297 -295 -296 0
-295 -297 0
-296 -297 0
295 296 297 0
c gate 298 -42 -90 0
-42 -298 0
-90 -298 0
42 90 298 0
c gate 299 42 90 0
42 -299 0
90 -299 0
-42 -90 299 0
c gate 300 -298 -299 0
-298 -300 0
-299 -300 0
298 299 300 0
c gate 301 297 300 0
297 -301 0
300 -301 0
-297 -300 301 0
c gate 302 48 96 0
48 -302 0
96 -302 0
-48 -96 302 0
c gate 303 -48 -96 0
-48 -303 0
-96 -303 0
48 96 303 0
c gate 304 -302 -303 0
-302 -304 0
-303 -304 0
302 303 304 0
c gate 305 -37 -85 0
-37 -305 0
-85 -305 0
37 85 305 0
c gate 306 -41 -89 0
-41 -306 0
-89 -306 0
41 89 306 0
c gate 307 -305 -306 0
-305 -307 0
-306 -307 0
305 306 307 0
c gate 308 304 307 0
304 -308 0
307 -308 0
-304 -307 308 0
c gate 309 301 308 0
301 -309 0
308 -309 0
-301 -308 309 0
c gate 310 294 309 0
294 -310 0
309 -310 0
-294 -309 310 0
c gate 311 283 310 0
283 -311 0
310 -311 0
-283 -310 311 0
c gate 312 276 311 0
276 -312 0
311 -312 0
-276 -311 312 0
c gate 313 -260 312 0
-260 -313 0
312 -313 0
260 -312 313 0
c PO
313 0
